SAT
45 -94 97 98 1 -67 -57 -39 -29 -9 56 20 90 93 -53 18 73 38 -86 92 31 100 -14 7 21 -15 40 66 -58 78 -27 19 -76 -75 -33 -70 -30 -48 -77 -83 -82 -28 3 62 -23 87 41 -13 -44 -10 -34 12 5 32 72 -74 61 84 -4 68 -17 51 59 42 52 -54 -26 -36 -50 64 2 -60 89 80 -63 88 11 6 79 46 71 81 47 -91 95 16 -43 -37 -22 -8 49 -35 -99 85 25 96 55 -69 24 -65 0
